GLPSOL--GLPK LP/MIP Solver 5.0
Parameter(s) specified in the command line:
 --lp ../modeles/3_49.lp --log 3_49.log
Reading problem data from '../modeles/3_49.lp'...
160 rows, 300 columns, 1044 non-zeros
147 integer variables, all of which are binary
469 lines were read
GLPK Integer Optimizer 5.0
160 rows, 300 columns, 1044 non-zeros
147 integer variables, all of which are binary
Preprocessing...
150 constraint coefficient(s) were reduced
160 rows, 297 columns, 1041 non-zeros
147 integer variables, all of which are binary
Scaling...
 A: min|aij| =  1.666e-03  max|aij| =  4.000e+00  ratio =  2.401e+03
GM: min|aij| =  1.429e-01  max|aij| =  7.000e+00  ratio =  4.900e+01
EQ: min|aij| =  2.041e-02  max|aij| =  1.000e+00  ratio =  4.900e+01
2N: min|aij| =  1.562e-02  max|aij| =  1.754e+00  ratio =  1.122e+02
Constructing initial basis...
Size of triangular part is 160
Solving LP relaxation...
GLPK Simplex Optimizer 5.0
160 rows, 297 columns, 1041 non-zeros
      0: obj =   6.000000000e+00 inf =   1.450e+01 (7)
     26: obj =   4.977083333e-01 inf =   0.000e+00 (0)
*    70: obj =  -1.727769679e+00 inf =   0.000e+00 (0)
OPTIMAL LP SOLUTION FOUND
Integer optimization begins...
Long-step dual simplex will be used
+    70: mip =     not found yet >=              -inf        (1; 0)
+   121: >>>>>  -1.727769679e+00 >=  -1.727769679e+00   0.0% (51; 0)
+   121: mip =  -1.727769679e+00 >=     tree is empty   0.0% (0; 101)
INTEGER OPTIMAL SOLUTION FOUND
Time used:   0.0 secs
Memory used: 0.5 Mb (497865 bytes)
